GLKH-1.1/TMP/mEgtspf.pid9800.atsp
NAME : mEgtspf.pid9800.gtsp
TYPE : ATSP
DIMENSION : 43
EDGE_WEIGHT_TYPE : EXPLICIT
EDGE_WEIGHT_FORMAT : FULL_MATRIX
EDGE_WEIGHT_SECTION
999999 5368709 5368709 5368775 5368774 5368773 5368774 5368774 5368773 5368772 5368773 5368794 5368793 5368794 5368795 5368827 5368828 5368827 5368826 5368858 5368857 5368856 5368857 5368714 5368715 5368716 5368715 5368843 5368842 5368841 5368842 5368752 5368751 5368752 5368753 5368791 5368792 5368793 5368792 5368833 5368832 5368831 5368832 
5368709 999999 5368709 5368753 5368752 5368751 5368752 5368752 5368751 5368750 5368751 5368772 5368771 5368772 5368773 5368805 5368806 5368805 5368804 5368836 5368835 5368834 5368835 5368732 5368731 5368730 5368731 5368821 5368820 5368819 5368820 5368730 5368729 5368730 5368731 5368769 5368770 5368771 5368770 5368811 5368810 5368809 5368810 
5368709 5368709 999999 5368752 5368751 5368750 5368751 5368751 5368750 5368749 5368750 5368771 5368770 5368771 5368772 5368804 5368805 5368804 5368803 5368835 5368834 5368833 5368834 5368749 5368748 5368747 5368748 5368820 5368819 5368818 5368819 5368713 5368714 5368715 5368714 5368768 5368769 5368770 5368769 5368810 5368809 5368808 5368809 
5368709 5368709 5368709 999999 0 10737418 10737418 5368711 5368712 5368713 5368712 5368731 5368730 5368731 5368732 5368764 5368765 5368764 5368763 5368795 5368794 5368793 5368794 5368773 5368772 5368771 5368772 5368780 5368779 5368778 5368779 5368753 5368752 5368753 5368754 5368728 5368729 5368730 5368729 5368770 5368769 5368768 5368769 
5368709 5368709 5368709 10737418 999999 0 10737418 5368712 5368713 5368714 5368713 5368730 5368729 5368730 5368731 5368763 5368764 5368763 5368762 5368794 5368793 5368792 5368793 5368774 5368773 5368772 5368773 5368779 5368778 5368777 5368778 5368754 5368753 5368754 5368755 5368727 5368728 5368729 5368728 5368769 5368768 5368767 5368768 
5368709 5368709 5368709 10737418 10737418 999999 0 5368711 5368712 5368713 5368712 5368731 5368730 5368731 5368732 5368764 5368765 5368764 5368763 5368795 5368794 5368793 5368794 5368773 5368772 5368771 5368772 5368780 5368779 5368778 5368779 5368753 5368752 5368753 5368754 5368728 5368729 5368730 5368729 5368770 5368769 5368768 5368769 
5368709 5368709 5368709 0 10737418 10737418 999999 5368710 5368711 5368712 5368711 5368732 5368731 5368732 5368733 5368765 5368766 5368765 5368764 5368796 5368795 5368794 5368795 5368772 5368771 5368770 5368771 5368781 5368780 5368779 5368780 5368752 5368751 5368752 5368753 5368729 5368730 5368731 5368730 5368771 5368770 5368769 5368770 
5368709 5368709 5368709 5368713 5368712 5368711 5368712 999999 0 10737418 10737418 5368732 5368731 5368732 5368733 5368765 5368766 5368765 5368764 5368796 5368795 5368794 5368795 5368772 5368771 5368770 5368771 5368781 5368780 5368779 5368780 5368752 5368751 5368752 5368753 5368729 5368730 5368731 5368730 5368771 5368770 5368769 5368770 
5368709 5368709 5368709 5368712 5368711 5368710 5368711 10737418 999999 0 10737418 5368731 5368730 5368731 5368732 5368764 5368765 5368764 5368763 5368795 5368794 5368793 5368794 5368773 5368772 5368771 5368772 5368780 5368779 5368778 5368779 5368753 5368752 5368753 5368754 5368728 5368729 5368730 5368729 5368770 5368769 5368768 5368769 
5368709 5368709 5368709 5368713 5368712 5368711 5368712 10737418 10737418 999999 0 5368732 5368731 5368732 5368733 5368765 5368766 5368765 5368764 5368796 5368795 5368794 5368795 5368772 5368771 5368770 5368771 5368781 5368780 5368779 5368780 5368752 5368751 5368752 5368753 5368729 5368730 5368731 5368730 5368771 5368770 5368769 5368770 
5368709 5368709 5368709 5368714 5368713 5368712 5368713 0 10737418 10737418 999999 5368733 5368732 5368733 5368734 5368766 5368767 5368766 5368765 5368797 5368796 5368795 5368796 5368771 5368770 5368769 5368770 5368782 5368781 5368780 5368781 5368751 5368750 5368751 5368752 5368730 5368731 5368732 5368731 5368772 5368771 5368770 5368771 
5368709 5368709 5368709 5368731 5368732 5368733 5368732 5368732 5368733 5368734 5368733 999999 0 10737418 10737418 5368749 5368750 5368749 5368748 5368780 5368779 5368778 5368779 5368794 5368793 5368792 5368793 5368765 5368764 5368763 5368764 5368774 5368773 5368774 5368775 5368719 5368720 5368721 5368720 5368755 5368754 5368753 5368754 
5368709 5368709 5368709 5368730 5368731 5368732 5368731 5368731 5368732 5368733 5368732 10737418 999999 0 10737418 5368748 5368749 5368748 5368747 5368779 5368778 5368777 5368778 5368793 5368792 5368791 5368792 5368764 5368763 5368762 5368763 5368773 5368772 5368773 5368774 5368718 5368719 5368720 5368719 5368754 5368753 5368752 5368753 
5368709 5368709 5368709 5368729 5368730 5368731 5368730 5368730 5368731 5368732 5368731 10737418 10737418 999999 0 5368747 5368748 5368747 5368746 5368778 5368777 5368776 5368777 5368792 5368791 5368790 5368791 5368763 5368762 5368761 5368762 5368772 5368771 5368772 5368773 5368717 5368718 5368719 5368718 5368753 5368752 5368751 5368752 
5368709 5368709 5368709 5368730 5368731 5368732 5368731 5368731 5368732 5368733 5368732 0 10737418 10737418 999999 5368748 5368749 5368748 5368747 5368779 5368778 5368777 5368778 5368793 5368792 5368791 5368792 5368764 5368763 5368762 5368763 5368773 5368772 5368773 5368774 5368718 5368719 5368720 5368719 5368754 5368753 5368752 5368753 
5368709 5368709 5368709 5368762 5368763 5368764 5368763 5368763 5368764 5368765 5368764 5368747 5368746 5368747 5368748 999999 0 10737418 10737418 5368757 5368756 5368755 5368756 5368825 5368824 5368823 5368824 5368742 5368741 5368740 5368741 5368805 5368804 5368805 5368806 5368752 5368753 5368754 5368753 5368732 5368731 5368730 5368731 
5368709 5368709 5368709 5368763 5368764 5368765 5368764 5368764 5368765 5368766 5368765 5368748 5368747 5368748 5368749 10737418 999999 0 10737418 5368758 5368757 5368756 5368757 5368826 5368825 5368824 5368825 5368743 5368742 5368741 5368742 5368806 5368805 5368806 5368807 5368753 5368754 5368755 5368754 5368733 5368732 5368731 5368732 
5368709 5368709 5368709 5368764 5368765 5368766 5368765 5368765 5368766 5368767 5368766 5368749 5368748 5368749 5368750 10737418 10737418 999999 0 5368759 5368758 5368757 5368758 5368827 5368826 5368825 5368826 5368744 5368743 5368742 5368743 5368807 5368806 5368807 5368808 5368754 5368755 5368756 5368755 5368734 5368733 5368732 5368733 
5368709 5368709 5368709 5368763 5368764 5368765 5368764 5368764 5368765 5368766 5368765 5368748 5368747 5368748 5368749 0 10737418 10737418 999999 5368758 5368757 5368756 5368757 5368826 5368825 5368824 5368825 5368743 5368742 5368741 5368742 5368806 5368805 5368806 5368807 5368753 5368754 5368755 5368754 5368733 5368732 5368731 5368732 
5368709 5368709 5368709 5368793 5368794 5368795 5368794 5368794 5368795 5368796 5368795 5368778 5368777 5368778 5368779 5368757 5368758 5368757 5368756 999999 0 10737418 10737418 5368856 5368855 5368854 5368855 5368769 5368768 5368767 5368768 5368836 5368835 5368836 5368837 5368783 5368784 5368785 5368784 5368759 5368758 5368757 5368758 
5368709 5368709 5368709 5368794 5368795 5368796 5368795 5368795 5368796 5368797 5368796 5368779 5368778 5368779 5368780 5368758 5368759 5368758 5368757 10737418 999999 0 10737418 5368857 5368856 5368855 5368856 5368770 5368769 5368768 5368769 5368837 5368836 5368837 5368838 5368784 5368785 5368786 5368785 5368760 5368759 5368758 5368759 
5368709 5368709 5368709 5368793 5368794 5368795 5368794 5368794 5368795 5368796 5368795 5368778 5368777 5368778 5368779 5368757 5368758 5368757 5368756 10737418 10737418 999999 0 5368856 5368855 5368854 5368855 5368769 5368768 5368767 5368768 5368836 5368835 5368836 5368837 5368783 5368784 5368785 5368784 5368759 5368758 5368757 5368758 
5368709 5368709 5368709 5368792 5368793 5368794 5368793 5368793 5368794 5368795 5368794 5368777 5368776 5368777 5368778 5368756 5368757 5368756 5368755 0 10737418 10737418 999999 5368855 5368854 5368853 5368854 5368768 5368767 5368766 5368767 5368835 5368834 5368835 5368836 5368782 5368783 5368784 5368783 5368758 5368757 5368756 5368757 
5368709 5368709 5368709 5368773 5368772 5368771 5368772 5368772 5368771 5368770 5368771 5368792 5368791 5368792 5368793 5368825 5368826 5368825 5368824 5368856 5368855 5368854 5368855 999999 0 10737418 10737418 5368841 5368840 5368839 5368840 5368750 5368749 5368750 5368751 5368789 5368790 5368791 5368790 5368831 5368830 5368829 5368830 
5368709 5368709 5368709 5368774 5368773 5368772 5368773 5368773 5368772 5368771 5368772 5368793 5368792 5368793 5368794 5368826 5368827 5368826 5368825 5368857 5368856 5368855 5368856 10737418 999999 0 10737418 5368842 5368841 5368840 5368841 5368751 5368750 5368751 5368752 5368790 5368791 5368792 5368791 5368832 5368831 5368830 5368831 
5368709 5368709 5368709 5368773 5368772 5368771 5368772 5368772 5368771 5368770 5368771 5368792 5368791 5368792 5368793 5368825 5368826 5368825 5368824 5368856 5368855 5368854 5368855 10737418 10737418 999999 0 5368841 5368840 5368839 5368840 5368750 5368749 5368750 5368751 5368789 5368790 5368791 5368790 5368831 5368830 5368829 5368830 
5368709 5368709 5368709 5368772 5368771 5368770 5368771 5368771 5368770 5368769 5368770 5368791 5368790 5368791 5368792 5368824 5368825 5368824 5368823 5368855 5368854 5368853 5368854 0 10737418 10737418 999999 5368840 5368839 5368838 5368839 5368749 5368748 5368749 5368750 5368788 5368789 5368790 5368789 5368830 5368829 5368828 5368829 
5368709 5368709 5368709 5368778 5368779 5368780 5368779 5368779 5368780 5368781 5368780 5368763 5368762 5368763 5368764 5368742 5368743 5368742 5368741 5368769 5368768 5368767 5368768 5368841 5368840 5368839 5368840 999999 0 10737418 10737418 5368821 5368820 5368821 5368822 5368768 5368769 5368770 5368769 5368720 5368719 5368720 5368721 
5368709 5368709 5368709 5368779 5368780 5368781 5368780 5368780 5368781 5368782 5368781 5368764 5368763 5368764 5368765 5368743 5368744 5368743 5368742 5368770 5368769 5368768 5368769 5368842 5368841 5368840 5368841 10737418 999999 0 10737418 5368822 5368821 5368822 5368823 5368769 5368770 5368771 5368770 5368721 5368720 5368721 5368722 
5368709 5368709 5368709 5368778 5368779 5368780 5368779 5368779 5368780 5368781 5368780 5368763 5368762 5368763 5368764 5368742 5368743 5368742 5368741 5368769 5368768 5368767 5368768 5368841 5368840 5368839 5368840 10737418 10737418 999999 0 5368821 5368820 5368821 5368822 5368768 5368769 5368770 5368769 5368720 5368719 5368720 5368721 
5368709 5368709 5368709 5368777 5368778 5368779 5368778 5368778 5368779 5368780 5368779 5368762 5368761 5368762 5368763 5368741 5368742 5368741 5368740 5368768 5368767 5368766 5368767 5368840 5368839 5368838 5368839 0 10737418 10737418 999999 5368820 5368819 5368820 5368821 5368767 5368768 5368769 5368768 5368719 5368718 5368719 5368720 
5368709 5368709 5368709 5368755 5368754 5368753 5368754 5368754 5368753 5368752 5368753 5368774 5368773 5368774 5368775 5368807 5368808 5368807 5368806 5368838 5368837 5368836 5368837 5368752 5368751 5368750 5368751 5368823 5368822 5368821 5368822 999999 0 10737418 10737418 5368771 5368772 5368773 5368772 5368813 5368812 5368811 5368812 
5368709 5368709 5368709 5368754 5368753 5368752 5368753 5368753 5368752 5368751 5368752 5368773 5368772 5368773 5368774 5368806 5368807 5368806 5368805 5368837 5368836 5368835 5368836 5368751 5368750 5368749 5368750 5368822 5368821 5368820 5368821 10737418 999999 0 10737418 5368770 5368771 5368772 5368771 5368812 5368811 5368810 5368811 
5368709 5368709 5368709 5368753 5368752 5368751 5368752 5368752 5368751 5368750 5368751 5368772 5368771 5368772 5368773 5368805 5368806 5368805 5368804 5368836 5368835 5368834 5368835 5368750 5368749 5368748 5368749 5368821 5368820 5368819 5368820 10737418 10737418 999999 0 5368769 5368770 5368771 5368770 5368811 5368810 5368809 5368810 
5368709 5368709 5368709 5368754 5368753 5368752 5368753 5368753 5368752 5368751 5368752 5368773 5368772 5368773 5368774 5368806 5368807 5368806 5368805 5368837 5368836 5368835 5368836 5368751 5368750 5368749 5368750 5368822 5368821 5368820 5368821 0 10737418 10737418 999999 5368770 5368771 5368772 5368771 5368812 5368811 5368810 5368811 
5368709 5368709 5368709 5368728 5368729 5368730 5368729 5368729 5368730 5368731 5368730 5368719 5368718 5368719 5368720 5368754 5368755 5368754 5368753 5368785 5368784 5368783 5368784 5368791 5368790 5368789 5368790 5368770 5368769 5368768 5368769 5368771 5368770 5368771 5368772 999999 0 10737418 10737418 5368760 5368759 5368758 5368759 
5368709 5368709 5368709 5368727 5368728 5368729 5368728 5368728 5368729 5368730 5368729 5368718 5368717 5368718 5368719 5368753 5368754 5368753 5368752 5368784 5368783 5368782 5368783 5368790 5368789 5368788 5368789 5368769 5368768 5368767 5368768 5368770 5368769 5368770 5368771 10737418 999999 0 10737418 5368759 5368758 5368757 5368758 
5368709 5368709 5368709 5368728 5368729 5368730 5368729 5368729 5368730 5368731 5368730 5368719 5368718 5368719 5368720 5368754 5368755 5368754 5368753 5368785 5368784 5368783 5368784 5368791 5368790 5368789 5368790 5368770 5368769 5368768 5368769 5368771 5368770 5368771 5368772 10737418 10737418 999999 0 5368760 5368759 5368758 5368759 
5368709 5368709 5368709 5368729 5368730 5368731 5368730 5368730 5368731 5368732 5368731 5368720 5368719 5368720 5368721 5368755 5368756 5368755 5368754 5368786 5368785 5368784 5368785 5368792 5368791 5368790 5368791 5368771 5368770 5368769 5368770 5368772 5368771 5368772 5368773 0 10737418 10737418 999999 5368761 5368760 5368759 5368760 
5368709 5368709 5368709 5368768 5368769 5368770 5368769 5368769 5368770 5368771 5368770 5368753 5368752 5368753 5368754 5368732 5368733 5368732 5368731 5368759 5368758 5368757 5368758 5368831 5368830 5368829 5368830 5368722 5368721 5368720 5368721 5368811 5368810 5368811 5368812 5368758 5368759 5368760 5368759 999999 0 10737418 10737418 
5368709 5368709 5368709 5368769 5368770 5368771 5368770 5368770 5368771 5368772 5368771 5368754 5368753 5368754 5368755 5368733 5368734 5368733 5368732 5368760 5368759 5368758 5368759 5368832 5368831 5368830 5368831 5368721 5368720 5368719 5368720 5368812 5368811 5368812 5368813 5368759 5368760 5368761 5368760 10737418 999999 0 10737418 
5368709 5368709 5368709 5368768 5368769 5368770 5368769 5368769 5368770 5368771 5368770 5368753 5368752 5368753 5368754 5368732 5368733 5368732 5368731 5368759 5368758 5368757 5368758 5368831 5368830 5368829 5368830 5368720 5368719 5368718 5368719 5368811 5368810 5368811 5368812 5368758 5368759 5368760 5368759 10737418 10737418 999999 0 
5368709 5368709 5368709 5368767 5368768 5368769 5368768 5368768 5368769 5368770 5368769 5368752 5368751 5368752 5368753 5368731 5368732 5368731 5368730 5368758 5368757 5368756 5368757 5368830 5368829 5368828 5368829 5368721 5368720 5368719 5368720 5368810 5368809 5368810 5368811 5368757 5368758 5368759 5368758 0 10737418 10737418 999999 
EOF
