RobustCbss/GLKH-1.1/TMP/mEgtspf.pid9800.tour
NAME : mEgtspf.pid9800.gtsp.69793427.tour
COMMENT : Length = 69793427
COMMENT : Found by LKH [Keld Helsgaun] Wed Apr  2 16:25:45 2025
TYPE : TOUR
DIMENSION : 43
TOUR_SECTION
1
24
25
26
27
2
10
11
8
9
6
7
4
5
39
36
37
38
14
15
12
13
17
18
19
16
31
28
29
30
40
41
42
43
22
23
20
21
3
32
33
34
35
-1
EOF
